(set-logic HORN)
(declare-datatypes ((Nat_1 0)) (((Z_0 ) (S_0 (unS_0 Nat_1)))))
(declare-fun diseqNat_0 (Nat_1 Nat_1) Bool)
(declare-fun unS_1 (Nat_1 Nat_1) Bool)
(declare-fun isZ_0 (Nat_1) Bool)
(declare-fun isS_0 (Nat_1) Bool)
(assert (forall ((x_32 Nat_1) (x_31 Nat_1))
	(=> (= x_32 (S_0 x_31))
	    (unS_1 x_31 x_32))))
(assert (isZ_0 Z_0))
(assert (forall ((x_33 Nat_1))
	(isS_0 (S_0 x_33))))
(assert (forall ((x_34 Nat_1))
	(diseqNat_0 Z_0 (S_0 x_34))))
(assert (forall ((x_35 Nat_1))
	(diseqNat_0 (S_0 x_35) Z_0)))
(assert (forall ((x_36 Nat_1) (x_37 Nat_1))
	(=> (diseqNat_0 x_36 x_37)
	    (diseqNat_0 (S_0 x_36) (S_0 x_37)))))
(declare-fun add_0 (Nat_1 Nat_1 Nat_1) Bool)
(declare-fun minus_0 (Nat_1 Nat_1 Nat_1) Bool)
(declare-fun le_0 (Nat_1 Nat_1) Bool)
(declare-fun ge_0 (Nat_1 Nat_1) Bool)
(declare-fun lt_0 (Nat_1 Nat_1) Bool)
(declare-fun gt_0 (Nat_1 Nat_1) Bool)
(declare-fun mult_0 (Nat_1 Nat_1 Nat_1) Bool)
(declare-fun div_0 (Nat_1 Nat_1 Nat_1) Bool)
(declare-fun mod_0 (Nat_1 Nat_1 Nat_1) Bool)
(assert (forall ((y_5 Nat_1))
	(add_0 y_5 Z_0 y_5)))
(assert (forall ((x_29 Nat_1) (y_5 Nat_1) (r_0 Nat_1))
	(=> (add_0 r_0 x_29 y_5)
	    (add_0 (S_0 r_0) (S_0 x_29) y_5))))
(assert (forall ((y_5 Nat_1))
	(minus_0 Z_0 Z_0 y_5)))
(assert (forall ((x_29 Nat_1) (y_5 Nat_1) (r_0 Nat_1))
	(=> (minus_0 r_0 x_29 y_5)
	    (minus_0 (S_0 r_0) (S_0 x_29) y_5))))
(assert (forall ((y_5 Nat_1))
	(le_0 Z_0 y_5)))
(assert (forall ((x_29 Nat_1) (y_5 Nat_1))
	(=> (le_0 x_29 y_5)
	    (le_0 (S_0 x_29) (S_0 y_5)))))
(assert (forall ((y_5 Nat_1))
	(ge_0 y_5 Z_0)))
(assert (forall ((x_29 Nat_1) (y_5 Nat_1))
	(=> (ge_0 x_29 y_5)
	    (ge_0 (S_0 x_29) (S_0 y_5)))))
(assert (forall ((y_5 Nat_1))
	(lt_0 Z_0 (S_0 y_5))))
(assert (forall ((x_29 Nat_1) (y_5 Nat_1))
	(=> (lt_0 x_29 y_5)
	    (lt_0 (S_0 x_29) (S_0 y_5)))))
(assert (forall ((y_5 Nat_1))
	(gt_0 (S_0 y_5) Z_0)))
(assert (forall ((x_29 Nat_1) (y_5 Nat_1))
	(=> (gt_0 x_29 y_5)
	    (gt_0 (S_0 x_29) (S_0 y_5)))))
(assert (forall ((y_5 Nat_1))
	(mult_0 Z_0 Z_0 y_5)))
(assert (forall ((x_29 Nat_1) (y_5 Nat_1) (r_0 Nat_1) (z_3 Nat_1))
	(=>	(and (mult_0 r_0 x_29 y_5)
			(add_0 z_3 r_0 y_5))
		(mult_0 z_3 (S_0 x_29) y_5))))
(assert (forall ((x_29 Nat_1) (y_5 Nat_1))
	(=> (lt_0 x_29 y_5)
	    (div_0 Z_0 x_29 y_5))))
(assert (forall ((x_29 Nat_1) (y_5 Nat_1) (r_0 Nat_1) (z_3 Nat_1))
	(=>	(and (ge_0 x_29 y_5)
			(minus_0 z_3 x_29 y_5)
			(div_0 r_0 z_3 y_5))
		(div_0 (S_0 r_0) x_29 y_5))))
(assert (forall ((x_29 Nat_1) (y_5 Nat_1))
	(=> (lt_0 x_29 y_5)
	    (mod_0 x_29 x_29 y_5))))
(assert (forall ((x_29 Nat_1) (y_5 Nat_1) (r_0 Nat_1) (z_3 Nat_1))
	(=>	(and (ge_0 x_29 y_5)
			(minus_0 z_3 x_29 y_5)
			(mod_0 r_0 z_3 y_5))
		(mod_0 r_0 x_29 y_5))))
(declare-datatypes ((Nat_0 0)) (((zero_0 ) (succ_0 (p_0 Nat_0)))))
(declare-fun diseqNat_1 (Nat_0 Nat_0) Bool)
(declare-fun p_1 (Nat_0 Nat_0) Bool)
(declare-fun iszero_0 (Nat_0) Bool)
(declare-fun issucc_0 (Nat_0) Bool)
(assert (forall ((x_40 Nat_0) (x_39 Nat_0))
	(=> (= x_40 (succ_0 x_39))
	    (p_1 x_39 x_40))))
(assert (iszero_0 zero_0))
(assert (forall ((x_41 Nat_0))
	(issucc_0 (succ_0 x_41))))
(assert (forall ((x_42 Nat_0))
	(diseqNat_1 zero_0 (succ_0 x_42))))
(assert (forall ((x_43 Nat_0))
	(diseqNat_1 (succ_0 x_43) zero_0)))
(assert (forall ((x_44 Nat_0) (x_45 Nat_0))
	(=> (diseqNat_1 x_44 x_45)
	    (diseqNat_1 (succ_0 x_44) (succ_0 x_45)))))
(declare-datatypes ((list_0 0)) (((nil_0 ) (cons_0 (head_0 Nat_0) (tail_0 list_0)))))
(declare-fun diseqlist_0 (list_0 list_0) Bool)
(declare-fun head_1 (Nat_0 list_0) Bool)
(declare-fun tail_1 (list_0 list_0) Bool)
(declare-fun isnil_0 (list_0) Bool)
(declare-fun iscons_0 (list_0) Bool)
(assert (forall ((x_49 list_0) (x_47 Nat_0) (x_48 list_0))
	(=> (= x_49 (cons_0 x_47 x_48))
	    (head_1 x_47 x_49))))
(assert (forall ((x_49 list_0) (x_47 Nat_0) (x_48 list_0))
	(=> (= x_49 (cons_0 x_47 x_48))
	    (tail_1 x_48 x_49))))
(assert (isnil_0 nil_0))
(assert (forall ((x_50 Nat_0) (x_51 list_0))
	(iscons_0 (cons_0 x_50 x_51))))
(assert (forall ((x_52 Nat_0) (x_53 list_0))
	(diseqlist_0 nil_0 (cons_0 x_52 x_53))))
(assert (forall ((x_54 Nat_0) (x_55 list_0))
	(diseqlist_0 (cons_0 x_54 x_55) nil_0)))
(assert (forall ((x_56 Nat_0) (x_57 list_0) (x_58 Nat_0) (x_59 list_0))
	(=> (diseqNat_1 x_56 x_58)
	    (diseqlist_0 (cons_0 x_56 x_57) (cons_0 x_58 x_59)))))
(assert (forall ((x_56 Nat_0) (x_57 list_0) (x_58 Nat_0) (x_59 list_0))
	(=> (diseqlist_0 x_57 x_59)
	    (diseqlist_0 (cons_0 x_56 x_57) (cons_0 x_58 x_59)))))
(declare-datatypes ((pair_0 0)) (((pair_1 (projpair_0 Bool) (projpair_1 list_0)))))
(declare-fun diseqpair_0 (pair_0 pair_0) Bool)
(declare-fun projpair_2 (Bool pair_0) Bool)
(declare-fun projpair_3 (list_0 pair_0) Bool)
(declare-fun ispair_0 (pair_0) Bool)
(assert (forall ((x_62 pair_0) (x_60 Bool) (x_61 list_0))
	(=> (= x_62 (pair_1 x_60 x_61))
	    (projpair_2 x_60 x_62))))
(assert (forall ((x_62 pair_0) (x_60 Bool) (x_61 list_0))
	(=> (= x_62 (pair_1 x_60 x_61))
	    (projpair_3 x_61 x_62))))
(assert (forall ((x_63 Bool) (x_64 list_0))
	(ispair_0 (pair_1 x_63 x_64))))
(assert (forall ((x_65 Bool) (x_66 list_0) (x_67 Bool) (x_68 list_0))
	(=> (not (= x_65 x_67))
	    (diseqpair_0 (pair_1 x_65 x_66) (pair_1 x_67 x_68)))))
(assert (forall ((x_65 Bool) (x_66 list_0) (x_67 Bool) (x_68 list_0))
	(=> (diseqlist_0 x_66 x_68)
	    (diseqpair_0 (pair_1 x_65 x_66) (pair_1 x_67 x_68)))))
(declare-fun leq_0 (Bool Nat_0 Nat_0) Bool)
(assert (forall ((x_0 Nat_0) (y_0 Nat_0) (z_0 Nat_0) (x_1 Nat_0) (x_5 Bool) (x_6 Bool))
	(=>	(and (= x_5 x_6)
			(leq_0 x_6 z_0 x_1)
			(= x_0 (succ_0 z_0))
			(= y_0 (succ_0 x_1)))
		(leq_0 x_5 x_0 y_0))))
(assert (forall ((x_0 Nat_0) (y_0 Nat_0) (z_0 Nat_0) (x_7 Bool))
	(=>	(and (= x_7 false)
			(= x_0 (succ_0 z_0))
			(= y_0 zero_0))
		(leq_0 x_7 x_0 y_0))))
(assert (forall ((x_0 Nat_0) (y_0 Nat_0) (x_8 Bool))
	(=>	(and (= x_8 true)
			(= x_0 zero_0))
		(leq_0 x_8 x_0 y_0))))
(declare-fun ordered_0 (Bool list_0) Bool)
(assert (forall ((x_2 list_0) (y_1 Nat_0) (z_1 list_0) (y_2 Nat_0) (xs_0 list_0) (x_9 Bool) (x_10 Bool) (x_11 Bool))
	(=>	(and (= x_9 (and x_10 x_11))
			(leq_0 x_10 y_1 y_2)
			(ordered_0 x_11 (cons_0 y_2 xs_0))
			(= x_2 (cons_0 y_1 z_1))
			(= z_1 (cons_0 y_2 xs_0)))
		(ordered_0 x_9 x_2))))
(assert (forall ((x_2 list_0) (y_1 Nat_0) (z_1 list_0) (x_12 Bool))
	(=>	(and (= x_12 true)
			(= x_2 (cons_0 y_1 z_1))
			(= z_1 nil_0))
		(ordered_0 x_12 x_2))))
(assert (forall ((x_2 list_0) (x_13 Bool))
	(=>	(and (= x_13 true)
			(= x_2 nil_0))
		(ordered_0 x_13 x_2))))
(declare-fun bubble_0 (pair_0 list_0) Bool)
(assert (forall ((x_3 list_0) (y_3 Nat_0) (z_2 list_0) (y_4 Nat_0) (xs_1 list_0) (b_0 Bool) (ys_0 list_0) (x_16 pair_0) (x_14 Bool) (x_15 pair_0))
	(=>	(and (= x_16 (pair_1 b_0 (cons_0 y_3 ys_0)))
			(= x_3 (cons_0 y_3 z_2))
			(= z_2 (cons_0 y_4 xs_1))
			(= x_14 true)
			(= x_15 (pair_1 b_0 ys_0))
			(leq_0 x_14 y_3 y_4)
			(bubble_0 x_15 (cons_0 y_4 xs_1)))
		(bubble_0 x_16 x_3))))
(assert (forall ((x_3 list_0) (y_3 Nat_0) (z_2 list_0) (y_4 Nat_0) (xs_1 list_0) (b_1 Bool) (ys_1 list_0) (x_19 pair_0) (x_17 Bool) (x_18 pair_0))
	(=>	(and (= x_19 (pair_1 true (cons_0 y_4 ys_1)))
			(= x_3 (cons_0 y_3 z_2))
			(= z_2 (cons_0 y_4 xs_1))
			(= x_17 false)
			(= x_18 (pair_1 b_1 ys_1))
			(leq_0 x_17 y_3 y_4)
			(bubble_0 x_18 (cons_0 y_3 xs_1)))
		(bubble_0 x_19 x_3))))
(assert (forall ((x_3 list_0) (y_3 Nat_0) (z_2 list_0) (x_20 pair_0))
	(=>	(and (= x_20 (pair_1 false (cons_0 y_3 nil_0)))
			(= x_3 (cons_0 y_3 z_2))
			(= z_2 nil_0))
		(bubble_0 x_20 x_3))))
(assert (forall ((x_3 list_0) (x_21 pair_0))
	(=>	(and (= x_21 (pair_1 false nil_0))
			(= x_3 nil_0))
		(bubble_0 x_21 x_3))))
(declare-fun bubsort_0 (list_0 list_0) Bool)
(assert (forall ((x_4 list_0) (c_0 Bool) (ys_2 list_0) (x_23 list_0) (x_24 list_0) (x_22 pair_0))
	(=>	(and (= x_23 x_24)
			(bubsort_0 x_24 ys_2)
			(= x_22 (pair_1 c_0 ys_2))
			c_0
			(bubble_0 x_22 x_4))
		(bubsort_0 x_23 x_4))))
(assert (forall ((x_4 list_0) (c_0 Bool) (ys_2 list_0) (x_26 list_0) (x_25 pair_0))
	(=>	(and (= x_26 x_4)
			(= x_25 (pair_1 c_0 ys_2))
			(not c_0)
			(bubble_0 x_25 x_4))
		(bubsort_0 x_26 x_4))))
(assert (forall ((xs_2 list_0) (x_27 list_0) (x_28 Bool))
	(=>	(and (= x_28 false)
			(bubsort_0 x_27 xs_2)
			(ordered_0 x_28 x_27))
		false)))
(check-sat)
